  8	59
 18
  0	 17	 10	 36	 95	 55	 42	114	 76	 69	101	 23	 22	 20	 81	 82	 79	119	
 18
  0	 38	 51	 14	110	 97	 73	 49	 43	 47	102	 32	 91	108	106	 52	111	119	
 14
  0	 24	 39	 98	 27	 83	 86	 18	 15	  4	 77	 74	 63	119	
 14
  0	 12	 44	 31	 37	 71	103	 96	 90	 53	 56	112	115	119	
 16
  0	 34	 25	 29	  3	 84	 93	  5	 64	 62	 11	 40	 88	 70	 99	119	
 14
  0	 46	 30	105	 54	  1	 13	 33	113	 72	 89	 60	 92	119	
 24
  0	  9	  6	 65	 16	 68	 75	 57	 35	116	  8	 19	  7	 67	 66	 94	 58	 78	117	 45	 21	104	 80	119	
 16
  0	 28	 59	118	 50	 87	109	  2	 26	 61	 48	 41	 85	100	107	119	
